44 45 74 7 6 60 43 70 41 13 65 26 48 32 14 27 12 77 58 55 71 38 37 40 5 75 50 11 53 76 17 54 46 25 21 23 51 36 67 19 28 20 1 79 10 8 57 31 3 2 4 33 35 63 73 24 42 29 52 56 15 62 34 69 30 47 59 18 64 61 22 66 68 39 72 9 16 0 49 78
